param set_len = 28;
param target = 192223;
param values := [0] 17640 [1] 17228 [2] 1620 [3] 19613 [4] 9130 [5] 11662 [6] 13957 [7] 13364 [8] 8467 [9] 7881 [10] 22711 [11] 25841 [12] 816 [13] 13538 [14] 28219 [15] 13819 [16] 15201 [17] 15151 [18] 6153 [19] 5592 [20] 26562 [21] 26578 [22] 21966 [23] 30882 [24] 26058 [25] 20517 [26] 9894 [27] 4363 ;
